
Gurobi 10.0.1 (win64) logging started Mon Aug 28 19:51:25 2023

Set parameter LogFile to value "results//log/BA_11_deadline.log"
Gurobi Optimizer version 10.0.1 build v10.0.1rc0 (win64)

CPU model: AMD Ryzen 7 3700X 8-Core Processor, instruction set [SSE2|AVX|AVX2]
Thread count: 8 physical cores, 16 logical processors, using up to 16 threads

Optimize a model with 285 rows, 296 columns and 1040 nonzeros
Model fingerprint: 0xf0dcb2ca
Model has 1 quadratic constraint
Variable types: 30 continuous, 266 integer (265 binary)
Coefficient statistics:
  Matrix range     [1e+00, 1e+06]
  QMatrix range    [1e+00, 1e+00]
  QLMatrix range   [1e+00, 1e+01]
  Objective range  [1e+00, 1e+00]
  Bounds range     [1e+00, 1e+00]
  RHS range        [1e+00, 3e+06]
Presolve removed 59 rows and 172 columns
Presolve time: 0.00s
Presolved: 237 rows, 134 columns, 996 nonzeros
Variable types: 40 continuous, 94 integer (93 binary)

Root relaxation: objective 0.000000e+00, 43 iterations, 0.00 seconds (0.00 work units)

    Nodes    |    Current Node    |     Objective Bounds      |     Work
 Expl Unexpl |  Obj  Depth IntInf | Incumbent    BestBd   Gap | It/Node Time

     0     0    0.00000    0    1          -    0.00000      -     -    0s
H    0     0                      63.0000000    0.00000   100%     -    0s
H    0     0                      58.0000000    0.00000   100%     -    0s
     0     0    0.00000    0    5   58.00000    0.00000   100%     -    0s
H    0     0                      56.0000000    0.00000   100%     -    0s
     0     0    0.00000    0    4   56.00000    0.00000   100%     -    0s
     0     0    0.00000    0    7   56.00000    0.00000   100%     -    0s
H    0     0                      53.0000000    0.00000   100%     -    0s
     0     0    0.00000    0    7   53.00000    0.00000   100%     -    0s
     0     0    0.00000    0    7   53.00000    0.00000   100%     -    0s
H    0     0                      52.0000000    0.00000   100%     -    0s
H    0     0                      50.0000000    0.00000   100%     -    0s
     0     0    0.00000    0    5   50.00000    0.00000   100%     -    0s
     0     0    0.00000    0    7   50.00000    0.00000   100%     -    0s
     0     0    0.00000    0    7   50.00000    0.00000   100%     -    0s
     0     2    0.00000    0    7   50.00000    0.00000   100%     -    0s
H   32    25                      44.0000000    2.00000  95.5%  33.4    0s
H   87    67                      42.0000000    2.00000  95.2%  17.7    0s
H  123    92                      41.0000000    2.00000  95.1%  14.7    0s
H  180   121                      40.0000000    2.00000  95.0%  12.7    0s
H  205   121                      38.0000000    2.00000  94.7%  12.5    0s
H 1050   327                      37.0000000    5.00000  86.5%   6.5    0s
* 1184   364              22      34.0000000    5.00000  85.3%   6.4    0s

Cutting planes:
  Learned: 145
  Cover: 60
  Implied bound: 36
  MIR: 8
  Flow cover: 16
  Inf proof: 38
  RLT: 7
  Relax-and-lift: 3
  PSD: 1

Explored 12767 nodes (56588 simplex iterations) in 0.53 seconds (0.40 work units)
Thread count was 16 (of 16 available processors)

Solution count 10: 34 34 37 ... 52

Optimal solution found (tolerance 1.00e-04)
Best objective 3.400000000000e+01, best bound 3.400000000000e+01, gap 0.0000%
Warning: constraint name "precedence between 0,2 to 0,0 if x_[j,l,h,z,i]=1" has a space
Warning: constraint name "precedence between 0,2 to 0,0 if x_[j,l,h,z,i]=1" has a space
Warning: default constraint names used to write mps file
